(set-info :category "industrial")
(set-info :status sat)
(declare-fun x00 () (_ BitVec 8))
(declare-fun x01 () (_ BitVec 8))
(declare-fun x05 () (_ BitVec 8))
(declare-fun x06 () (_ BitVec 8))
(declare-fun x08 () (_ BitVec 8))
(declare-fun x11 () (_ BitVec 8))
(declare-fun x12 () (_ BitVec 8))
(declare-fun x14 () (_ BitVec 8))
(declare-fun x15 () (_ BitVec 8))
(declare-fun x17 () (_ BitVec 8))
(declare-fun x18 () (_ BitVec 8))
(declare-fun x21 () (_ BitVec 8))
(declare-fun x22 () (_ BitVec 8))
(declare-fun x23 () (_ BitVec 8))
(declare-fun x24 () (_ BitVec 8))
(declare-fun x28 () (_ BitVec 8))
(declare-fun x31 () (_ BitVec 8))
(declare-fun x32 () (_ BitVec 8))
(declare-fun x34 () (_ BitVec 8))
(declare-fun x35 () (_ BitVec 8))
(declare-fun x36 () (_ BitVec 8))
(declare-fun x37 () (_ BitVec 8))
(declare-fun x40 () (_ BitVec 8))
(declare-fun x41 () (_ BitVec 8))
(declare-fun x42 () (_ BitVec 8))
(declare-fun x43 () (_ BitVec 8))
(declare-fun x44 () (_ BitVec 8))
(declare-fun x45 () (_ BitVec 8))
(declare-fun x48 () (_ BitVec 8))
(declare-fun x50 () (_ BitVec 8))
(declare-fun x52 () (_ BitVec 8))
(declare-fun x56 () (_ BitVec 8))
(declare-fun x57 () (_ BitVec 8))
(declare-fun x60 () (_ BitVec 8))
(declare-fun x62 () (_ BitVec 8))
(declare-fun x63 () (_ BitVec 8))
(declare-fun x64 () (_ BitVec 8))
(declare-fun x66 () (_ BitVec 8))
(declare-fun x70 () (_ BitVec 8))
(declare-fun x71 () (_ BitVec 8))
(declare-fun x73 () (_ BitVec 8))
(declare-fun x75 () (_ BitVec 8))
(declare-fun x77 () (_ BitVec 8))
(declare-fun x81 () (_ BitVec 8))
(declare-fun x84 () (_ BitVec 8))
(declare-fun x87 () (_ BitVec 8))
(declare-fun x88 () (_ BitVec 8))
(assert (bvult x00 (_ bv9 8)))
(assert (bvult x01 (_ bv9 8)))
(assert (bvult x05 (_ bv9 8)))
(assert (bvult x06 (_ bv9 8)))
(assert (bvult x08 (_ bv9 8)))
(assert (bvult x11 (_ bv9 8)))
(assert (bvult x12 (_ bv9 8)))
(assert (bvult x14 (_ bv9 8)))
(assert (bvult x15 (_ bv9 8)))
(assert (bvult x17 (_ bv9 8)))
(assert (bvult x18 (_ bv9 8)))
(assert (bvult x21 (_ bv9 8)))
(assert (bvult x22 (_ bv9 8)))
(assert (bvult x23 (_ bv9 8)))
(assert (bvult x24 (_ bv9 8)))
(assert (bvult x28 (_ bv9 8)))
(assert (bvult x31 (_ bv9 8)))
(assert (bvult x32 (_ bv9 8)))
(assert (bvult x34 (_ bv9 8)))
(assert (bvult x35 (_ bv9 8)))
(assert (bvult x36 (_ bv9 8)))
(assert (bvult x37 (_ bv9 8)))
(assert (bvult x40 (_ bv9 8)))
(assert (bvult x41 (_ bv9 8)))
(assert (bvult x42 (_ bv9 8)))
(assert (bvult x43 (_ bv9 8)))
(assert (bvult x44 (_ bv9 8)))
(assert (bvult x45 (_ bv9 8)))
(assert (bvult x48 (_ bv9 8)))
(assert (bvult x50 (_ bv9 8)))
(assert (bvult x52 (_ bv9 8)))
(assert (bvult x56 (_ bv9 8)))
(assert (bvult x57 (_ bv9 8)))
(assert (bvult x60 (_ bv9 8)))
(assert (bvult x62 (_ bv9 8)))
(assert (bvult x63 (_ bv9 8)))
(assert (bvult x64 (_ bv9 8)))
(assert (bvult x66 (_ bv9 8)))
(assert (bvult x70 (_ bv9 8)))
(assert (bvult x71 (_ bv9 8)))
(assert (bvult x73 (_ bv9 8)))
(assert (bvult x75 (_ bv9 8)))
(assert (bvult x77 (_ bv9 8)))
(assert (bvult x81 (_ bv9 8)))
(assert (bvult x84 (_ bv9 8)))
(assert (bvult x87 (_ bv9 8)))
(assert (bvult x88 (_ bv9 8)))
(assert (not (= x00 x01)))
(assert (not (= x00 (_ bv6 8))))
(assert (not (= x00 (_ bv7 8))))
(assert (not (= x00 (_ bv1 8))))
(assert (not (= x00 x05)))
(assert (not (= x00 x06)))
(assert (not (= x00 (_ bv2 8))))
(assert (not (= x00 x08)))
(assert (not (= x01 (_ bv6 8))))
(assert (not (= x01 (_ bv7 8))))
(assert (not (= x01 (_ bv1 8))))
(assert (not (= x01 x05)))
(assert (not (= x01 x06)))
(assert (not (= x01 (_ bv2 8))))
(assert (not (= x01 x08)))
(assert (not (= (_ bv6 8) (_ bv7 8))))
(assert (not (= (_ bv6 8) (_ bv1 8))))
(assert (not (= (_ bv6 8) x05)))
(assert (not (= (_ bv6 8) x06)))
(assert (not (= (_ bv6 8) (_ bv2 8))))
(assert (not (= (_ bv6 8) x08)))
(assert (not (= (_ bv7 8) (_ bv1 8))))
(assert (not (= (_ bv7 8) x05)))
(assert (not (= (_ bv7 8) x06)))
(assert (not (= (_ bv7 8) (_ bv2 8))))
(assert (not (= (_ bv7 8) x08)))
(assert (not (= (_ bv1 8) x05)))
(assert (not (= (_ bv1 8) x06)))
(assert (not (= (_ bv1 8) (_ bv2 8))))
(assert (not (= (_ bv1 8) x08)))
(assert (not (= x05 x06)))
(assert (not (= x05 (_ bv2 8))))
(assert (not (= x05 x08)))
(assert (not (= x06 (_ bv2 8))))
(assert (not (= x06 x08)))
(assert (not (= (_ bv2 8) x08)))
(assert (not (= (_ bv3 8) x11)))
(assert (not (= (_ bv3 8) x12)))
(assert (not (= (_ bv3 8) (_ bv2 8))))
(assert (not (= (_ bv3 8) x14)))
(assert (not (= (_ bv3 8) x15)))
(assert (not (= (_ bv3 8) (_ bv9 8))))
(assert (not (= (_ bv3 8) x17)))
(assert (not (= (_ bv3 8) x18)))
(assert (not (= x11 x12)))
(assert (not (= x11 (_ bv2 8))))
(assert (not (= x11 x14)))
(assert (not (= x11 x15)))
(assert (not (= x11 (_ bv9 8))))
(assert (not (= x11 x17)))
(assert (not (= x11 x18)))
(assert (not (= x12 (_ bv2 8))))
(assert (not (= x12 x14)))
(assert (not (= x12 x15)))
(assert (not (= x12 (_ bv9 8))))
(assert (not (= x12 x17)))
(assert (not (= x12 x18)))
(assert (not (= (_ bv2 8) x14)))
(assert (not (= (_ bv2 8) x15)))
(assert (not (= (_ bv2 8) (_ bv9 8))))
(assert (not (= (_ bv2 8) x17)))
(assert (not (= (_ bv2 8) x18)))
(assert (not (= x14 x15)))
(assert (not (= x14 (_ bv9 8))))
(assert (not (= x14 x17)))
(assert (not (= x14 x18)))
(assert (not (= x15 (_ bv9 8))))
(assert (not (= x15 x17)))
(assert (not (= x15 x18)))
(assert (not (= (_ bv9 8) x17)))
(assert (not (= (_ bv9 8) x18)))
(assert (not (= x17 x18)))
(assert (not (= (_ bv7 8) x21)))
(assert (not (= (_ bv7 8) x22)))
(assert (not (= (_ bv7 8) x23)))
(assert (not (= (_ bv7 8) x24)))
(assert (not (= (_ bv7 8) (_ bv5 8))))
(assert (not (= (_ bv7 8) (_ bv4 8))))
(assert (not (= (_ bv7 8) (_ bv8 8))))
(assert (not (= (_ bv7 8) x28)))
(assert (not (= x21 x22)))
(assert (not (= x21 x23)))
(assert (not (= x21 x24)))
(assert (not (= x21 (_ bv5 8))))
(assert (not (= x21 (_ bv4 8))))
(assert (not (= x21 (_ bv8 8))))
(assert (not (= x21 x28)))
(assert (not (= x22 x23)))
(assert (not (= x22 x24)))
(assert (not (= x22 (_ bv5 8))))
(assert (not (= x22 (_ bv4 8))))
(assert (not (= x22 (_ bv8 8))))
(assert (not (= x22 x28)))
(assert (not (= x23 x24)))
(assert (not (= x23 (_ bv5 8))))
(assert (not (= x23 (_ bv4 8))))
(assert (not (= x23 (_ bv8 8))))
(assert (not (= x23 x28)))
(assert (not (= x24 (_ bv5 8))))
(assert (not (= x24 (_ bv4 8))))
(assert (not (= x24 (_ bv8 8))))
(assert (not (= x24 x28)))
(assert (not (= (_ bv5 8) (_ bv4 8))))
(assert (not (= (_ bv5 8) (_ bv8 8))))
(assert (not (= (_ bv5 8) x28)))
(assert (not (= (_ bv4 8) (_ bv8 8))))
(assert (not (= (_ bv4 8) x28)))
(assert (not (= (_ bv8 8) x28)))
(assert (not (= (_ bv8 8) x31)))
(assert (not (= (_ bv8 8) x32)))
(assert (not (= (_ bv8 8) (_ bv6 8))))
(assert (not (= (_ bv8 8) x34)))
(assert (not (= (_ bv8 8) x35)))
(assert (not (= (_ bv8 8) x36)))
(assert (not (= (_ bv8 8) x37)))
(assert (not (= (_ bv8 8) (_ bv7 8))))
(assert (not (= x31 x32)))
(assert (not (= x31 (_ bv6 8))))
(assert (not (= x31 x34)))
(assert (not (= x31 x35)))
(assert (not (= x31 x36)))
(assert (not (= x31 x37)))
(assert (not (= x31 (_ bv7 8))))
(assert (not (= x32 (_ bv6 8))))
(assert (not (= x32 x34)))
(assert (not (= x32 x35)))
(assert (not (= x32 x36)))
(assert (not (= x32 x37)))
(assert (not (= x32 (_ bv7 8))))
(assert (not (= (_ bv6 8) x34)))
(assert (not (= (_ bv6 8) x35)))
(assert (not (= (_ bv6 8) x36)))
(assert (not (= (_ bv6 8) x37)))
(assert (not (= (_ bv6 8) (_ bv7 8))))
(assert (not (= x34 x35)))
(assert (not (= x34 x36)))
(assert (not (= x34 x37)))
(assert (not (= x34 (_ bv7 8))))
(assert (not (= x35 x36)))
(assert (not (= x35 x37)))
(assert (not (= x35 (_ bv7 8))))
(assert (not (= x36 x37)))
(assert (not (= x36 (_ bv7 8))))
(assert (not (= x37 (_ bv7 8))))
(assert (not (= x40 x41)))
(assert (not (= x40 x42)))
(assert (not (= x40 x43)))
(assert (not (= x40 x44)))
(assert (not (= x40 x45)))
(assert (not (= x40 (_ bv3 8))))
(assert (not (= x40 (_ bv5 8))))
(assert (not (= x40 x48)))
(assert (not (= x41 x42)))
(assert (not (= x41 x43)))
(assert (not (= x41 x44)))
(assert (not (= x41 x45)))
(assert (not (= x41 (_ bv3 8))))
(assert (not (= x41 (_ bv5 8))))
(assert (not (= x41 x48)))
(assert (not (= x42 x43)))
(assert (not (= x42 x44)))
(assert (not (= x42 x45)))
(assert (not (= x42 (_ bv3 8))))
(assert (not (= x42 (_ bv5 8))))
(assert (not (= x42 x48)))
(assert (not (= x43 x44)))
(assert (not (= x43 x45)))
(assert (not (= x43 (_ bv3 8))))
(assert (not (= x43 (_ bv5 8))))
(assert (not (= x43 x48)))
(assert (not (= x44 x45)))
(assert (not (= x44 (_ bv3 8))))
(assert (not (= x44 (_ bv5 8))))
(assert (not (= x44 x48)))
(assert (not (= x45 (_ bv3 8))))
(assert (not (= x45 (_ bv5 8))))
(assert (not (= x45 x48)))
(assert (not (= (_ bv3 8) (_ bv5 8))))
(assert (not (= (_ bv3 8) x48)))
(assert (not (= (_ bv5 8) x48)))
(assert (not (= x50 (_ bv3 8))))
(assert (not (= x50 x52)))
(assert (not (= x50 (_ bv9 8))))
(assert (not (= x50 (_ bv2 8))))
(assert (not (= x50 (_ bv4 8))))
(assert (not (= x50 x56)))
(assert (not (= x50 x57)))
(assert (not (= x50 (_ bv8 8))))
(assert (not (= (_ bv3 8) x52)))
(assert (not (= (_ bv3 8) (_ bv9 8))))
(assert (not (= (_ bv3 8) (_ bv2 8))))
(assert (not (= (_ bv3 8) (_ bv4 8))))
(assert (not (= (_ bv3 8) x56)))
(assert (not (= (_ bv3 8) x57)))
(assert (not (= (_ bv3 8) (_ bv8 8))))
(assert (not (= x52 (_ bv9 8))))
(assert (not (= x52 (_ bv2 8))))
(assert (not (= x52 (_ bv4 8))))
(assert (not (= x52 x56)))
(assert (not (= x52 x57)))
(assert (not (= x52 (_ bv8 8))))
(assert (not (= (_ bv9 8) (_ bv2 8))))
(assert (not (= (_ bv9 8) (_ bv4 8))))
(assert (not (= (_ bv9 8) x56)))
(assert (not (= (_ bv9 8) x57)))
(assert (not (= (_ bv9 8) (_ bv8 8))))
(assert (not (= (_ bv2 8) (_ bv4 8))))
(assert (not (= (_ bv2 8) x56)))
(assert (not (= (_ bv2 8) x57)))
(assert (not (= (_ bv2 8) (_ bv8 8))))
(assert (not (= (_ bv4 8) x56)))
(assert (not (= (_ bv4 8) x57)))
(assert (not (= (_ bv4 8) (_ bv8 8))))
(assert (not (= x56 x57)))
(assert (not (= x56 (_ bv8 8))))
(assert (not (= x57 (_ bv8 8))))
(assert (not (= x60 (_ bv2 8))))
(assert (not (= x60 x62)))
(assert (not (= x60 x63)))
(assert (not (= x60 x64)))
(assert (not (= x60 (_ bv6 8))))
(assert (not (= x60 x66)))
(assert (not (= x60 (_ bv9 8))))
(assert (not (= x60 (_ bv5 8))))
(assert (not (= (_ bv2 8) x62)))
(assert (not (= (_ bv2 8) x63)))
(assert (not (= (_ bv2 8) x64)))
(assert (not (= (_ bv2 8) (_ bv6 8))))
(assert (not (= (_ bv2 8) x66)))
(assert (not (= (_ bv2 8) (_ bv9 8))))
(assert (not (= (_ bv2 8) (_ bv5 8))))
(assert (not (= x62 x63)))
(assert (not (= x62 x64)))
(assert (not (= x62 (_ bv6 8))))
(assert (not (= x62 x66)))
(assert (not (= x62 (_ bv9 8))))
(assert (not (= x62 (_ bv5 8))))
(assert (not (= x63 x64)))
(assert (not (= x63 (_ bv6 8))))
(assert (not (= x63 x66)))
(assert (not (= x63 (_ bv9 8))))
(assert (not (= x63 (_ bv5 8))))
(assert (not (= x64 (_ bv6 8))))
(assert (not (= x64 x66)))
(assert (not (= x64 (_ bv9 8))))
(assert (not (= x64 (_ bv5 8))))
(assert (not (= (_ bv6 8) x66)))
(assert (not (= (_ bv6 8) (_ bv9 8))))
(assert (not (= (_ bv6 8) (_ bv5 8))))
(assert (not (= x66 (_ bv9 8))))
(assert (not (= x66 (_ bv5 8))))
(assert (not (= (_ bv9 8) (_ bv5 8))))
(assert (not (= x70 x71)))
(assert (not (= x70 (_ bv8 8))))
(assert (not (= x70 x73)))
(assert (not (= x70 (_ bv3 8))))
(assert (not (= x70 x75)))
(assert (not (= x70 (_ bv1 8))))
(assert (not (= x70 x77)))
(assert (not (= x70 (_ bv4 8))))
(assert (not (= x71 (_ bv8 8))))
(assert (not (= x71 x73)))
(assert (not (= x71 (_ bv3 8))))
(assert (not (= x71 x75)))
(assert (not (= x71 (_ bv1 8))))
(assert (not (= x71 x77)))
(assert (not (= x71 (_ bv4 8))))
(assert (not (= (_ bv8 8) x73)))
(assert (not (= (_ bv8 8) (_ bv3 8))))
(assert (not (= (_ bv8 8) x75)))
(assert (not (= (_ bv8 8) (_ bv1 8))))
(assert (not (= (_ bv8 8) x77)))
(assert (not (= (_ bv8 8) (_ bv4 8))))
(assert (not (= x73 (_ bv3 8))))
(assert (not (= x73 x75)))
(assert (not (= x73 (_ bv1 8))))
(assert (not (= x73 x77)))
(assert (not (= x73 (_ bv4 8))))
(assert (not (= (_ bv3 8) x75)))
(assert (not (= (_ bv3 8) (_ bv1 8))))
(assert (not (= (_ bv3 8) x77)))
(assert (not (= (_ bv3 8) (_ bv4 8))))
(assert (not (= x75 (_ bv1 8))))
(assert (not (= x75 x77)))
(assert (not (= x75 (_ bv4 8))))
(assert (not (= (_ bv1 8) x77)))
(assert (not (= (_ bv1 8) (_ bv4 8))))
(assert (not (= x77 (_ bv4 8))))
(assert (not (= (_ bv6 8) x81)))
(assert (not (= (_ bv6 8) (_ bv5 8))))
(assert (not (= (_ bv6 8) (_ bv8 8))))
(assert (not (= (_ bv6 8) x84)))
(assert (not (= (_ bv6 8) (_ bv1 8))))
(assert (not (= (_ bv6 8) (_ bv7 8))))
(assert (not (= (_ bv6 8) x87)))
(assert (not (= (_ bv6 8) x88)))
(assert (not (= x81 (_ bv5 8))))
(assert (not (= x81 (_ bv8 8))))
(assert (not (= x81 x84)))
(assert (not (= x81 (_ bv1 8))))
(assert (not (= x81 (_ bv7 8))))
(assert (not (= x81 x87)))
(assert (not (= x81 x88)))
(assert (not (= (_ bv5 8) (_ bv8 8))))
(assert (not (= (_ bv5 8) x84)))
(assert (not (= (_ bv5 8) (_ bv1 8))))
(assert (not (= (_ bv5 8) (_ bv7 8))))
(assert (not (= (_ bv5 8) x87)))
(assert (not (= (_ bv5 8) x88)))
(assert (not (= (_ bv8 8) x84)))
(assert (not (= (_ bv8 8) (_ bv1 8))))
(assert (not (= (_ bv8 8) (_ bv7 8))))
(assert (not (= (_ bv8 8) x87)))
(assert (not (= (_ bv8 8) x88)))
(assert (not (= x84 (_ bv1 8))))
(assert (not (= x84 (_ bv7 8))))
(assert (not (= x84 x87)))
(assert (not (= x84 x88)))
(assert (not (= (_ bv1 8) (_ bv7 8))))
(assert (not (= (_ bv1 8) x87)))
(assert (not (= (_ bv1 8) x88)))
(assert (not (= (_ bv7 8) x87)))
(assert (not (= (_ bv7 8) x88)))
(assert (not (= x87 x88)))
(assert (not (= x00 (_ bv3 8))))
(assert (not (= x00 (_ bv7 8))))
(assert (not (= x00 (_ bv8 8))))
(assert (not (= x00 x40)))
(assert (not (= x00 x50)))
(assert (not (= x00 x60)))
(assert (not (= x00 x70)))
(assert (not (= x00 (_ bv6 8))))
(assert (not (= (_ bv3 8) (_ bv7 8))))
(assert (not (= (_ bv3 8) (_ bv8 8))))
(assert (not (= (_ bv3 8) x40)))
(assert (not (= (_ bv3 8) x50)))
(assert (not (= (_ bv3 8) x60)))
(assert (not (= (_ bv3 8) x70)))
(assert (not (= (_ bv3 8) (_ bv6 8))))
(assert (not (= (_ bv7 8) (_ bv8 8))))
(assert (not (= (_ bv7 8) x40)))
(assert (not (= (_ bv7 8) x50)))
(assert (not (= (_ bv7 8) x60)))
(assert (not (= (_ bv7 8) x70)))
(assert (not (= (_ bv7 8) (_ bv6 8))))
(assert (not (= (_ bv8 8) x40)))
(assert (not (= (_ bv8 8) x50)))
(assert (not (= (_ bv8 8) x60)))
(assert (not (= (_ bv8 8) x70)))
(assert (not (= (_ bv8 8) (_ bv6 8))))
(assert (not (= x40 x50)))
(assert (not (= x40 x60)))
(assert (not (= x40 x70)))
(assert (not (= x40 (_ bv6 8))))
(assert (not (= x50 x60)))
(assert (not (= x50 x70)))
(assert (not (= x50 (_ bv6 8))))
(assert (not (= x60 x70)))
(assert (not (= x60 (_ bv6 8))))
(assert (not (= x70 (_ bv6 8))))
(assert (not (= x01 x11)))
(assert (not (= x01 x21)))
(assert (not (= x01 x31)))
(assert (not (= x01 x41)))
(assert (not (= x01 (_ bv3 8))))
(assert (not (= x01 (_ bv2 8))))
(assert (not (= x01 x71)))
(assert (not (= x01 x81)))
(assert (not (= x11 x21)))
(assert (not (= x11 x31)))
(assert (not (= x11 x41)))
(assert (not (= x11 (_ bv3 8))))
(assert (not (= x11 (_ bv2 8))))
(assert (not (= x11 x71)))
(assert (not (= x11 x81)))
(assert (not (= x21 x31)))
(assert (not (= x21 x41)))
(assert (not (= x21 (_ bv3 8))))
(assert (not (= x21 (_ bv2 8))))
(assert (not (= x21 x71)))
(assert (not (= x21 x81)))
(assert (not (= x31 x41)))
(assert (not (= x31 (_ bv3 8))))
(assert (not (= x31 (_ bv2 8))))
(assert (not (= x31 x71)))
(assert (not (= x31 x81)))
(assert (not (= x41 (_ bv3 8))))
(assert (not (= x41 (_ bv2 8))))
(assert (not (= x41 x71)))
(assert (not (= x41 x81)))
(assert (not (= (_ bv3 8) (_ bv2 8))))
(assert (not (= (_ bv3 8) x71)))
(assert (not (= (_ bv3 8) x81)))
(assert (not (= (_ bv2 8) x71)))
(assert (not (= (_ bv2 8) x81)))
(assert (not (= x71 x81)))
(assert (not (= (_ bv6 8) x12)))
(assert (not (= (_ bv6 8) x22)))
(assert (not (= (_ bv6 8) x32)))
(assert (not (= (_ bv6 8) x42)))
(assert (not (= (_ bv6 8) x52)))
(assert (not (= (_ bv6 8) x62)))
(assert (not (= (_ bv6 8) (_ bv8 8))))
(assert (not (= (_ bv6 8) (_ bv5 8))))
(assert (not (= x12 x22)))
(assert (not (= x12 x32)))
(assert (not (= x12 x42)))
(assert (not (= x12 x52)))
(assert (not (= x12 x62)))
(assert (not (= x12 (_ bv8 8))))
(assert (not (= x12 (_ bv5 8))))
(assert (not (= x22 x32)))
(assert (not (= x22 x42)))
(assert (not (= x22 x52)))
(assert (not (= x22 x62)))
(assert (not (= x22 (_ bv8 8))))
(assert (not (= x22 (_ bv5 8))))
(assert (not (= x32 x42)))
(assert (not (= x32 x52)))
(assert (not (= x32 x62)))
(assert (not (= x32 (_ bv8 8))))
(assert (not (= x32 (_ bv5 8))))
(assert (not (= x42 x52)))
(assert (not (= x42 x62)))
(assert (not (= x42 (_ bv8 8))))
(assert (not (= x42 (_ bv5 8))))
(assert (not (= x52 x62)))
(assert (not (= x52 (_ bv8 8))))
(assert (not (= x52 (_ bv5 8))))
(assert (not (= x62 (_ bv8 8))))
(assert (not (= x62 (_ bv5 8))))
(assert (not (= (_ bv8 8) (_ bv5 8))))
(assert (not (= (_ bv7 8) (_ bv2 8))))
(assert (not (= (_ bv7 8) x23)))
(assert (not (= (_ bv7 8) (_ bv6 8))))
(assert (not (= (_ bv7 8) x43)))
(assert (not (= (_ bv7 8) (_ bv9 8))))
(assert (not (= (_ bv7 8) x63)))
(assert (not (= (_ bv7 8) x73)))
(assert (not (= (_ bv7 8) (_ bv8 8))))
(assert (not (= (_ bv2 8) x23)))
(assert (not (= (_ bv2 8) (_ bv6 8))))
(assert (not (= (_ bv2 8) x43)))
(assert (not (= (_ bv2 8) (_ bv9 8))))
(assert (not (= (_ bv2 8) x63)))
(assert (not (= (_ bv2 8) x73)))
(assert (not (= (_ bv2 8) (_ bv8 8))))
(assert (not (= x23 (_ bv6 8))))
(assert (not (= x23 x43)))
(assert (not (= x23 (_ bv9 8))))
(assert (not (= x23 x63)))
(assert (not (= x23 x73)))
(assert (not (= x23 (_ bv8 8))))
(assert (not (= (_ bv6 8) x43)))
(assert (not (= (_ bv6 8) (_ bv9 8))))
(assert (not (= (_ bv6 8) x63)))
(assert (not (= (_ bv6 8) x73)))
(assert (not (= (_ bv6 8) (_ bv8 8))))
(assert (not (= x43 (_ bv9 8))))
(assert (not (= x43 x63)))
(assert (not (= x43 x73)))
(assert (not (= x43 (_ bv8 8))))
(assert (not (= (_ bv9 8) x63)))
(assert (not (= (_ bv9 8) x73)))
(assert (not (= (_ bv9 8) (_ bv8 8))))
(assert (not (= x63 x73)))
(assert (not (= x63 (_ bv8 8))))
(assert (not (= x73 (_ bv8 8))))
(assert (not (= (_ bv1 8) x14)))
(assert (not (= (_ bv1 8) x24)))
(assert (not (= (_ bv1 8) x34)))
(assert (not (= (_ bv1 8) x44)))
(assert (not (= (_ bv1 8) (_ bv2 8))))
(assert (not (= (_ bv1 8) x64)))
(assert (not (= (_ bv1 8) (_ bv3 8))))
(assert (not (= (_ bv1 8) x84)))
(assert (not (= x14 x24)))
(assert (not (= x14 x34)))
(assert (not (= x14 x44)))
(assert (not (= x14 (_ bv2 8))))
(assert (not (= x14 x64)))
(assert (not (= x14 (_ bv3 8))))
(assert (not (= x14 x84)))
(assert (not (= x24 x34)))
(assert (not (= x24 x44)))
(assert (not (= x24 (_ bv2 8))))
(assert (not (= x24 x64)))
(assert (not (= x24 (_ bv3 8))))
(assert (not (= x24 x84)))
(assert (not (= x34 x44)))
(assert (not (= x34 (_ bv2 8))))
(assert (not (= x34 x64)))
(assert (not (= x34 (_ bv3 8))))
(assert (not (= x34 x84)))
(assert (not (= x44 (_ bv2 8))))
(assert (not (= x44 x64)))
(assert (not (= x44 (_ bv3 8))))
(assert (not (= x44 x84)))
(assert (not (= (_ bv2 8) x64)))
(assert (not (= (_ bv2 8) (_ bv3 8))))
(assert (not (= (_ bv2 8) x84)))
(assert (not (= x64 (_ bv3 8))))
(assert (not (= x64 x84)))
(assert (not (= (_ bv3 8) x84)))
(assert (not (= x05 x15)))
(assert (not (= x05 (_ bv5 8))))
(assert (not (= x05 x35)))
(assert (not (= x05 x45)))
(assert (not (= x05 (_ bv4 8))))
(assert (not (= x05 (_ bv6 8))))
(assert (not (= x05 x75)))
(assert (not (= x05 (_ bv1 8))))
(assert (not (= x15 (_ bv5 8))))
(assert (not (= x15 x35)))
(assert (not (= x15 x45)))
(assert (not (= x15 (_ bv4 8))))
(assert (not (= x15 (_ bv6 8))))
(assert (not (= x15 x75)))
(assert (not (= x15 (_ bv1 8))))
(assert (not (= (_ bv5 8) x35)))
(assert (not (= (_ bv5 8) x45)))
(assert (not (= (_ bv5 8) (_ bv4 8))))
(assert (not (= (_ bv5 8) (_ bv6 8))))
(assert (not (= (_ bv5 8) x75)))
(assert (not (= (_ bv5 8) (_ bv1 8))))
(assert (not (= x35 x45)))
(assert (not (= x35 (_ bv4 8))))
(assert (not (= x35 (_ bv6 8))))
(assert (not (= x35 x75)))
(assert (not (= x35 (_ bv1 8))))
(assert (not (= x45 (_ bv4 8))))
(assert (not (= x45 (_ bv6 8))))
(assert (not (= x45 x75)))
(assert (not (= x45 (_ bv1 8))))
(assert (not (= (_ bv4 8) (_ bv6 8))))
(assert (not (= (_ bv4 8) x75)))
(assert (not (= (_ bv4 8) (_ bv1 8))))
(assert (not (= (_ bv6 8) x75)))
(assert (not (= (_ bv6 8) (_ bv1 8))))
(assert (not (= x75 (_ bv1 8))))
(assert (not (= x06 (_ bv9 8))))
(assert (not (= x06 (_ bv4 8))))
(assert (not (= x06 x36)))
(assert (not (= x06 (_ bv3 8))))
(assert (not (= x06 x56)))
(assert (not (= x06 x66)))
(assert (not (= x06 (_ bv1 8))))
(assert (not (= x06 (_ bv7 8))))
(assert (not (= (_ bv9 8) (_ bv4 8))))
(assert (not (= (_ bv9 8) x36)))
(assert (not (= (_ bv9 8) (_ bv3 8))))
(assert (not (= (_ bv9 8) x56)))
(assert (not (= (_ bv9 8) x66)))
(assert (not (= (_ bv9 8) (_ bv1 8))))
(assert (not (= (_ bv9 8) (_ bv7 8))))
(assert (not (= (_ bv4 8) x36)))
(assert (not (= (_ bv4 8) (_ bv3 8))))
(assert (not (= (_ bv4 8) x56)))
(assert (not (= (_ bv4 8) x66)))
(assert (not (= (_ bv4 8) (_ bv1 8))))
(assert (not (= (_ bv4 8) (_ bv7 8))))
(assert (not (= x36 (_ bv3 8))))
(assert (not (= x36 x56)))
(assert (not (= x36 x66)))
(assert (not (= x36 (_ bv1 8))))
(assert (not (= x36 (_ bv7 8))))
(assert (not (= (_ bv3 8) x56)))
(assert (not (= (_ bv3 8) x66)))
(assert (not (= (_ bv3 8) (_ bv1 8))))
(assert (not (= (_ bv3 8) (_ bv7 8))))
(assert (not (= x56 x66)))
(assert (not (= x56 (_ bv1 8))))
(assert (not (= x56 (_ bv7 8))))
(assert (not (= x66 (_ bv1 8))))
(assert (not (= x66 (_ bv7 8))))
(assert (not (= (_ bv1 8) (_ bv7 8))))
(assert (not (= (_ bv2 8) x17)))
(assert (not (= (_ bv2 8) (_ bv8 8))))
(assert (not (= (_ bv2 8) x37)))
(assert (not (= (_ bv2 8) (_ bv5 8))))
(assert (not (= (_ bv2 8) x57)))
(assert (not (= (_ bv2 8) (_ bv9 8))))
(assert (not (= (_ bv2 8) x77)))
(assert (not (= (_ bv2 8) x87)))
(assert (not (= x17 (_ bv8 8))))
(assert (not (= x17 x37)))
(assert (not (= x17 (_ bv5 8))))
(assert (not (= x17 x57)))
(assert (not (= x17 (_ bv9 8))))
(assert (not (= x17 x77)))
(assert (not (= x17 x87)))
(assert (not (= (_ bv8 8) x37)))
(assert (not (= (_ bv8 8) (_ bv5 8))))
(assert (not (= (_ bv8 8) x57)))
(assert (not (= (_ bv8 8) (_ bv9 8))))
(assert (not (= (_ bv8 8) x77)))
(assert (not (= (_ bv8 8) x87)))
(assert (not (= x37 (_ bv5 8))))
(assert (not (= x37 x57)))
(assert (not (= x37 (_ bv9 8))))
(assert (not (= x37 x77)))
(assert (not (= x37 x87)))
(assert (not (= (_ bv5 8) x57)))
(assert (not (= (_ bv5 8) (_ bv9 8))))
(assert (not (= (_ bv5 8) x77)))
(assert (not (= (_ bv5 8) x87)))
(assert (not (= x57 (_ bv9 8))))
(assert (not (= x57 x77)))
(assert (not (= x57 x87)))
(assert (not (= (_ bv9 8) x77)))
(assert (not (= (_ bv9 8) x87)))
(assert (not (= x77 x87)))
(assert (not (= x08 x18)))
(assert (not (= x08 x28)))
(assert (not (= x08 (_ bv7 8))))
(assert (not (= x08 x48)))
(assert (not (= x08 (_ bv8 8))))
(assert (not (= x08 (_ bv5 8))))
(assert (not (= x08 (_ bv4 8))))
(assert (not (= x08 x88)))
(assert (not (= x18 x28)))
(assert (not (= x18 (_ bv7 8))))
(assert (not (= x18 x48)))
(assert (not (= x18 (_ bv8 8))))
(assert (not (= x18 (_ bv5 8))))
(assert (not (= x18 (_ bv4 8))))
(assert (not (= x18 x88)))
(assert (not (= x28 (_ bv7 8))))
(assert (not (= x28 x48)))
(assert (not (= x28 (_ bv8 8))))
(assert (not (= x28 (_ bv5 8))))
(assert (not (= x28 (_ bv4 8))))
(assert (not (= x28 x88)))
(assert (not (= (_ bv7 8) x48)))
(assert (not (= (_ bv7 8) (_ bv8 8))))
(assert (not (= (_ bv7 8) (_ bv5 8))))
(assert (not (= (_ bv7 8) (_ bv4 8))))
(assert (not (= (_ bv7 8) x88)))
(assert (not (= x48 (_ bv8 8))))
(assert (not (= x48 (_ bv5 8))))
(assert (not (= x48 (_ bv4 8))))
(assert (not (= x48 x88)))
(assert (not (= (_ bv8 8) (_ bv5 8))))
(assert (not (= (_ bv8 8) (_ bv4 8))))
(assert (not (= (_ bv8 8) x88)))
(assert (not (= (_ bv5 8) (_ bv4 8))))
(assert (not (= (_ bv5 8) x88)))
(assert (not (= (_ bv4 8) x88)))
(assert (not (= x00 x01)))
(assert (not (= x00 (_ bv6 8))))
(assert (not (= x00 (_ bv3 8))))
(assert (not (= x00 x11)))
(assert (not (= x00 x12)))
(assert (not (= x00 (_ bv7 8))))
(assert (not (= x00 x21)))
(assert (not (= x00 x22)))
(assert (not (= x01 (_ bv6 8))))
(assert (not (= x01 (_ bv3 8))))
(assert (not (= x01 x11)))
(assert (not (= x01 x12)))
(assert (not (= x01 (_ bv7 8))))
(assert (not (= x01 x21)))
(assert (not (= x01 x22)))
(assert (not (= (_ bv6 8) (_ bv3 8))))
(assert (not (= (_ bv6 8) x11)))
(assert (not (= (_ bv6 8) x12)))
(assert (not (= (_ bv6 8) (_ bv7 8))))
(assert (not (= (_ bv6 8) x21)))
(assert (not (= (_ bv6 8) x22)))
(assert (not (= (_ bv3 8) x11)))
(assert (not (= (_ bv3 8) x12)))
(assert (not (= (_ bv3 8) (_ bv7 8))))
(assert (not (= (_ bv3 8) x21)))
(assert (not (= (_ bv3 8) x22)))
(assert (not (= x11 x12)))
(assert (not (= x11 (_ bv7 8))))
(assert (not (= x11 x21)))
(assert (not (= x11 x22)))
(assert (not (= x12 (_ bv7 8))))
(assert (not (= x12 x21)))
(assert (not (= x12 x22)))
(assert (not (= (_ bv7 8) x21)))
(assert (not (= (_ bv7 8) x22)))
(assert (not (= x21 x22)))
(assert (not (= (_ bv7 8) (_ bv1 8))))
(assert (not (= (_ bv7 8) x05)))
(assert (not (= (_ bv7 8) (_ bv2 8))))
(assert (not (= (_ bv7 8) x14)))
(assert (not (= (_ bv7 8) x15)))
(assert (not (= (_ bv7 8) x23)))
(assert (not (= (_ bv7 8) x24)))
(assert (not (= (_ bv7 8) (_ bv5 8))))
(assert (not (= (_ bv1 8) x05)))
(assert (not (= (_ bv1 8) (_ bv2 8))))
(assert (not (= (_ bv1 8) x14)))
(assert (not (= (_ bv1 8) x15)))
(assert (not (= (_ bv1 8) x23)))
(assert (not (= (_ bv1 8) x24)))
(assert (not (= (_ bv1 8) (_ bv5 8))))
(assert (not (= x05 (_ bv2 8))))
(assert (not (= x05 x14)))
(assert (not (= x05 x15)))
(assert (not (= x05 x23)))
(assert (not (= x05 x24)))
(assert (not (= x05 (_ bv5 8))))
(assert (not (= (_ bv2 8) x14)))
(assert (not (= (_ bv2 8) x15)))
(assert (not (= (_ bv2 8) x23)))
(assert (not (= (_ bv2 8) x24)))
(assert (not (= (_ bv2 8) (_ bv5 8))))
(assert (not (= x14 x15)))
(assert (not (= x14 x23)))
(assert (not (= x14 x24)))
(assert (not (= x14 (_ bv5 8))))
(assert (not (= x15 x23)))
(assert (not (= x15 x24)))
(assert (not (= x15 (_ bv5 8))))
(assert (not (= x23 x24)))
(assert (not (= x23 (_ bv5 8))))
(assert (not (= x24 (_ bv5 8))))
(assert (not (= x06 (_ bv2 8))))
(assert (not (= x06 x08)))
(assert (not (= x06 (_ bv9 8))))
(assert (not (= x06 x17)))
(assert (not (= x06 x18)))
(assert (not (= x06 (_ bv4 8))))
(assert (not (= x06 (_ bv8 8))))
(assert (not (= x06 x28)))
(assert (not (= (_ bv2 8) x08)))
(assert (not (= (_ bv2 8) (_ bv9 8))))
(assert (not (= (_ bv2 8) x17)))
(assert (not (= (_ bv2 8) x18)))
(assert (not (= (_ bv2 8) (_ bv4 8))))
(assert (not (= (_ bv2 8) (_ bv8 8))))
(assert (not (= (_ bv2 8) x28)))
(assert (not (= x08 (_ bv9 8))))
(assert (not (= x08 x17)))
(assert (not (= x08 x18)))
(assert (not (= x08 (_ bv4 8))))
(assert (not (= x08 (_ bv8 8))))
(assert (not (= x08 x28)))
(assert (not (= (_ bv9 8) x17)))
(assert (not (= (_ bv9 8) x18)))
(assert (not (= (_ bv9 8) (_ bv4 8))))
(assert (not (= (_ bv9 8) (_ bv8 8))))
(assert (not (= (_ bv9 8) x28)))
(assert (not (= x17 x18)))
(assert (not (= x17 (_ bv4 8))))
(assert (not (= x17 (_ bv8 8))))
(assert (not (= x17 x28)))
(assert (not (= x18 (_ bv4 8))))
(assert (not (= x18 (_ bv8 8))))
(assert (not (= x18 x28)))
(assert (not (= (_ bv4 8) (_ bv8 8))))
(assert (not (= (_ bv4 8) x28)))
(assert (not (= (_ bv8 8) x28)))
(assert (not (= (_ bv8 8) x31)))
(assert (not (= (_ bv8 8) x32)))
(assert (not (= (_ bv8 8) x40)))
(assert (not (= (_ bv8 8) x41)))
(assert (not (= (_ bv8 8) x42)))
(assert (not (= (_ bv8 8) x50)))
(assert (not (= (_ bv8 8) (_ bv3 8))))
(assert (not (= (_ bv8 8) x52)))
(assert (not (= x31 x32)))
(assert (not (= x31 x40)))
(assert (not (= x31 x41)))
(assert (not (= x31 x42)))
(assert (not (= x31 x50)))
(assert (not (= x31 (_ bv3 8))))
(assert (not (= x31 x52)))
(assert (not (= x32 x40)))
(assert (not (= x32 x41)))
(assert (not (= x32 x42)))
(assert (not (= x32 x50)))
(assert (not (= x32 (_ bv3 8))))
(assert (not (= x32 x52)))
(assert (not (= x40 x41)))
(assert (not (= x40 x42)))
(assert (not (= x40 x50)))
(assert (not (= x40 (_ bv3 8))))
(assert (not (= x40 x52)))
(assert (not (= x41 x42)))
(assert (not (= x41 x50)))
(assert (not (= x41 (_ bv3 8))))
(assert (not (= x41 x52)))
(assert (not (= x42 x50)))
(assert (not (= x42 (_ bv3 8))))
(assert (not (= x42 x52)))
(assert (not (= x50 (_ bv3 8))))
(assert (not (= x50 x52)))
(assert (not (= (_ bv3 8) x52)))
(assert (not (= (_ bv6 8) x34)))
(assert (not (= (_ bv6 8) x35)))
(assert (not (= (_ bv6 8) x43)))
(assert (not (= (_ bv6 8) x44)))
(assert (not (= (_ bv6 8) x45)))
(assert (not (= (_ bv6 8) (_ bv9 8))))
(assert (not (= (_ bv6 8) (_ bv2 8))))
(assert (not (= (_ bv6 8) (_ bv4 8))))
(assert (not (= x34 x35)))
(assert (not (= x34 x43)))
(assert (not (= x34 x44)))
(assert (not (= x34 x45)))
(assert (not (= x34 (_ bv9 8))))
(assert (not (= x34 (_ bv2 8))))
(assert (not (= x34 (_ bv4 8))))
(assert (not (= x35 x43)))
(assert (not (= x35 x44)))
(assert (not (= x35 x45)))
(assert (not (= x35 (_ bv9 8))))
(assert (not (= x35 (_ bv2 8))))
(assert (not (= x35 (_ bv4 8))))
(assert (not (= x43 x44)))
(assert (not (= x43 x45)))
(assert (not (= x43 (_ bv9 8))))
(assert (not (= x43 (_ bv2 8))))
(assert (not (= x43 (_ bv4 8))))
(assert (not (= x44 x45)))
(assert (not (= x44 (_ bv9 8))))
(assert (not (= x44 (_ bv2 8))))
(assert (not (= x44 (_ bv4 8))))
(assert (not (= x45 (_ bv9 8))))
(assert (not (= x45 (_ bv2 8))))
(assert (not (= x45 (_ bv4 8))))
(assert (not (= (_ bv9 8) (_ bv2 8))))
(assert (not (= (_ bv9 8) (_ bv4 8))))
(assert (not (= (_ bv2 8) (_ bv4 8))))
(assert (not (= x36 x37)))
(assert (not (= x36 (_ bv7 8))))
(assert (not (= x36 (_ bv3 8))))
(assert (not (= x36 (_ bv5 8))))
(assert (not (= x36 x48)))
(assert (not (= x36 x56)))
(assert (not (= x36 x57)))
(assert (not (= x36 (_ bv8 8))))
(assert (not (= x37 (_ bv7 8))))
(assert (not (= x37 (_ bv3 8))))
(assert (not (= x37 (_ bv5 8))))
(assert (not (= x37 x48)))
(assert (not (= x37 x56)))
(assert (not (= x37 x57)))
(assert (not (= x37 (_ bv8 8))))
(assert (not (= (_ bv7 8) (_ bv3 8))))
(assert (not (= (_ bv7 8) (_ bv5 8))))
(assert (not (= (_ bv7 8) x48)))
(assert (not (= (_ bv7 8) x56)))
(assert (not (= (_ bv7 8) x57)))
(assert (not (= (_ bv7 8) (_ bv8 8))))
(assert (not (= (_ bv3 8) (_ bv5 8))))
(assert (not (= (_ bv3 8) x48)))
(assert (not (= (_ bv3 8) x56)))
(assert (not (= (_ bv3 8) x57)))
(assert (not (= (_ bv3 8) (_ bv8 8))))
(assert (not (= (_ bv5 8) x48)))
(assert (not (= (_ bv5 8) x56)))
(assert (not (= (_ bv5 8) x57)))
(assert (not (= (_ bv5 8) (_ bv8 8))))
(assert (not (= x48 x56)))
(assert (not (= x48 x57)))
(assert (not (= x48 (_ bv8 8))))
(assert (not (= x56 x57)))
(assert (not (= x56 (_ bv8 8))))
(assert (not (= x57 (_ bv8 8))))
(assert (not (= x60 (_ bv2 8))))
(assert (not (= x60 x62)))
(assert (not (= x60 x70)))
(assert (not (= x60 x71)))
(assert (not (= x60 (_ bv8 8))))
(assert (not (= x60 (_ bv6 8))))
(assert (not (= x60 x81)))
(assert (not (= x60 (_ bv5 8))))
(assert (not (= (_ bv2 8) x62)))
(assert (not (= (_ bv2 8) x70)))
(assert (not (= (_ bv2 8) x71)))
(assert (not (= (_ bv2 8) (_ bv8 8))))
(assert (not (= (_ bv2 8) (_ bv6 8))))
(assert (not (= (_ bv2 8) x81)))
(assert (not (= (_ bv2 8) (_ bv5 8))))
(assert (not (= x62 x70)))
(assert (not (= x62 x71)))
(assert (not (= x62 (_ bv8 8))))
(assert (not (= x62 (_ bv6 8))))
(assert (not (= x62 x81)))
(assert (not (= x62 (_ bv5 8))))
(assert (not (= x70 x71)))
(assert (not (= x70 (_ bv8 8))))
(assert (not (= x70 (_ bv6 8))))
(assert (not (= x70 x81)))
(assert (not (= x70 (_ bv5 8))))
(assert (not (= x71 (_ bv8 8))))
(assert (not (= x71 (_ bv6 8))))
(assert (not (= x71 x81)))
(assert (not (= x71 (_ bv5 8))))
(assert (not (= (_ bv8 8) (_ bv6 8))))
(assert (not (= (_ bv8 8) x81)))
(assert (not (= (_ bv8 8) (_ bv5 8))))
(assert (not (= (_ bv6 8) x81)))
(assert (not (= (_ bv6 8) (_ bv5 8))))
(assert (not (= x81 (_ bv5 8))))
(assert (not (= x63 x64)))
(assert (not (= x63 (_ bv6 8))))
(assert (not (= x63 x73)))
(assert (not (= x63 (_ bv3 8))))
(assert (not (= x63 x75)))
(assert (not (= x63 (_ bv8 8))))
(assert (not (= x63 x84)))
(assert (not (= x63 (_ bv1 8))))
(assert (not (= x64 (_ bv6 8))))
(assert (not (= x64 x73)))
(assert (not (= x64 (_ bv3 8))))
(assert (not (= x64 x75)))
(assert (not (= x64 (_ bv8 8))))
(assert (not (= x64 x84)))
(assert (not (= x64 (_ bv1 8))))
(assert (not (= (_ bv6 8) x73)))
(assert (not (= (_ bv6 8) (_ bv3 8))))
(assert (not (= (_ bv6 8) x75)))
(assert (not (= (_ bv6 8) (_ bv8 8))))
(assert (not (= (_ bv6 8) x84)))
(assert (not (= (_ bv6 8) (_ bv1 8))))
(assert (not (= x73 (_ bv3 8))))
(assert (not (= x73 x75)))
(assert (not (= x73 (_ bv8 8))))
(assert (not (= x73 x84)))
(assert (not (= x73 (_ bv1 8))))
(assert (not (= (_ bv3 8) x75)))
(assert (not (= (_ bv3 8) (_ bv8 8))))
(assert (not (= (_ bv3 8) x84)))
(assert (not (= (_ bv3 8) (_ bv1 8))))
(assert (not (= x75 (_ bv8 8))))
(assert (not (= x75 x84)))
(assert (not (= x75 (_ bv1 8))))
(assert (not (= (_ bv8 8) x84)))
(assert (not (= (_ bv8 8) (_ bv1 8))))
(assert (not (= x84 (_ bv1 8))))
(assert (not (= x66 (_ bv9 8))))
(assert (not (= x66 (_ bv5 8))))
(assert (not (= x66 (_ bv1 8))))
(assert (not (= x66 x77)))
(assert (not (= x66 (_ bv4 8))))
(assert (not (= x66 (_ bv7 8))))
(assert (not (= x66 x87)))
(assert (not (= x66 x88)))
(assert (not (= (_ bv9 8) (_ bv5 8))))
(assert (not (= (_ bv9 8) (_ bv1 8))))
(assert (not (= (_ bv9 8) x77)))
(assert (not (= (_ bv9 8) (_ bv4 8))))
(assert (not (= (_ bv9 8) (_ bv7 8))))
(assert (not (= (_ bv9 8) x87)))
(assert (not (= (_ bv9 8) x88)))
(assert (not (= (_ bv5 8) (_ bv1 8))))
(assert (not (= (_ bv5 8) x77)))
(assert (not (= (_ bv5 8) (_ bv4 8))))
(assert (not (= (_ bv5 8) (_ bv7 8))))
(assert (not (= (_ bv5 8) x87)))
(assert (not (= (_ bv5 8) x88)))
(assert (not (= (_ bv1 8) x77)))
(assert (not (= (_ bv1 8) (_ bv4 8))))
(assert (not (= (_ bv1 8) (_ bv7 8))))
(assert (not (= (_ bv1 8) x87)))
(assert (not (= (_ bv1 8) x88)))
(assert (not (= x77 (_ bv4 8))))
(assert (not (= x77 (_ bv7 8))))
(assert (not (= x77 x87)))
(assert (not (= x77 x88)))
(assert (not (= (_ bv4 8) (_ bv7 8))))
(assert (not (= (_ bv4 8) x87)))
(assert (not (= (_ bv4 8) x88)))
(assert (not (= (_ bv7 8) x87)))
(assert (not (= (_ bv7 8) x88)))
(assert (not (= x87 x88)))
(check-sat)
(exit)
